0 126 
1 127 
2 127 
3 126 
4 126 
5 125 
6 124 
7 124 
8 124 
9 120 
10 119 
11 124 
12 122 
13 121 
14 121 
15 120 
16 119 
17 118 
18 116 
19 118 
20 115 
21 113 
22 111 
23 111 
24 110 
25 108 
26 106 
27 106 
28 105 
29 104 
30 102 
31 100 
32 101 
33 101 
34 98 
35 96 
36 95 
37 93 
38 91 
39 89 
40 91 
41 89 
42 88 
43 85 
44 84 
45 83 
46 83 
47 80 
48 79 
49 76 
50 76 
51 77 
52 74 
53 74 
54 71 
55 71 
56 71 
57 69 
58 69 
59 68 
60 68 
61 66 
62 68 
63 68 
64 68 
65 67 
66 66 
67 65 
68 63 
69 62 
70 61 
71 59 
72 59 
73 58 
74 56 
75 55 
76 55 
77 53 
78 52 
79 52 
80 51 
81 51 
82 51 
83 50 
84 50 
85 49 
86 47 
87 42 
88 41 
89 39 
90 41 
91 36 
92 34 
93 34 
94 31 
95 31 
96 31 
97 29 
98 28 
99 28 
100 26 
101 26 
102 18 
103 17 
104 18 
105 12 
106 10 
107 11 
108 6 
109 5 
110 4 
111 2 
112 2 
113 1 
114 1 
115 0 
116 0 

